NAME: 123`321
TYPE: TSP
COMMENT: User-generated TSP file
DIMENSION: 20
EDGE_WEIGHT_TYPE: EUC_2D
NODE_COORD_SECTION
1 1.0 1.0
2 2.0 8.0
3 10.0 2.0
4 10.0 3.0
5 9.0 2.0
6 4.0 2.0
7 3.0 10.0
8 1.0 7.0
9 9.0 5.0
10 9.0 5.0
11 2.0 7.0
12 10.0 10.0
13 10.0 4.0
14 8.0 3.0
15 1.0 9.0
16 9.0 4.0
17 1.0 8.0
18 9.0 2.0
19 10.0 6.0
20 7.0 4.0
EOF

